instances/shortest_path/discrete/shortest_path_3_12.lp
\ Model nohadani_3_12
\ LP format - for model browsing. Use MPS format to capture full model detail.
\ Signature: 0xf9a0f44b955a6a9b
Minimize
  8.602325267042627 y[0,1] + 56.04462507680822 y[0,2]
   + 8.602325267042627 y[1,0] + 51.07837115648854 y[1,2]
   + 56.04462507680822 y[2,0] + 51.07837115648854 y[2,1] + x[0,1] + x[0,2]
   + x[1,0] + x[1,2] + x[2,0] + x[2,1] + 0.8602325267042628 r[0,1]
   + 5.604462507680822 r[0,2] + 0.8602325267042628 r[1,0]
   + 5.107837115648854 r[1,2] + 5.604462507680822 r[2,0]
   + 5.107837115648854 r[2,1]
Subject To
 flow_cons_inner_nodes[1]: y[0,1] - y[1,0] - y[1,2] + y[2,1] = 0
 flow_cons_source: y[0,1] + y[0,2] - y[1,0] - y[2,0] = 1
 flow_cons_target: y[0,2] + y[1,2] - y[2,0] - y[2,1] = 1
 primal_lower: 4.802211311682473 x[0,1] + 6.262043017676454 x[0,2]
   + 3.073858280917333 x[1,0] + 6.755653012328025 x[1,2]
   + 11.79363291630485 x[2,0] + 10.8279318025463 x[2,1] + 72 u[0,1]
   + 69 u[0,2] + 47 u[1,0] + 88 u[1,2] + 5 u[2,0] + 2 u[2,1] <= 88
 mccormick1[0,1]: - u[0,1] + r[0,1] <= 0
 mccormick1[0,2]: - u[0,2] + r[0,2] <= 0
 mccormick1[1,0]: - u[1,0] + r[1,0] <= 0
 mccormick1[1,2]: - u[1,2] + r[1,2] <= 0
 mccormick1[2,0]: - u[2,0] + r[2,0] <= 0
 mccormick1[2,1]: - u[2,1] + r[2,1] <= 0
 mccormick2[0,1]: - y[0,1] + r[0,1] <= 0
 mccormick2[0,2]: - y[0,2] + r[0,2] <= 0
 mccormick2[1,0]: - y[1,0] + r[1,0] <= 0
 mccormick2[1,2]: - y[1,2] + r[1,2] <= 0
 mccormick2[2,0]: - y[2,0] + r[2,0] <= 0
 mccormick2[2,1]: - y[2,1] + r[2,1] <= 0
 mccormick3[0,1]: - y[0,1] - u[0,1] + r[0,1] >= -1
 mccormick3[0,2]: - y[0,2] - u[0,2] + r[0,2] >= -1
 mccormick3[1,0]: - y[1,0] - u[1,0] + r[1,0] >= -1
 mccormick3[1,2]: - y[1,2] - u[1,2] + r[1,2] >= -1
 mccormick3[2,0]: - y[2,0] - u[2,0] + r[2,0] >= -1
 mccormick3[2,1]: - y[2,1] - u[2,1] + r[2,1] >= -1
Bounds
Binaries
 y[0,1] y[0,2] y[1,0] y[1,2] y[2,0] y[2,1] x[0,1] x[0,2] x[1,0] x[1,2]
 x[2,0] x[2,1] u[0,1] u[0,2] u[1,0] u[1,2] u[2,0] u[2,1] r[0,1] r[0,2]
 r[1,0] r[1,2] r[2,0] r[2,1]
End
