instances/shortest_path/discrete/shortest_path_3_12.kp
5887
88

[4.802211311682473 6.262043017676454 3.073858280917333 6.755653012328025 11.79363291630485 10.827931802546297]

[72 69 47 88 5 2]
